0
92
93
94
95
96
97
98
99
100
101
102
103
104
105
106
107
108
109
110
111
112
113
114
115
116
117
118
119
16
17
18
19
20
21
22
23
24
25
26
27
28
29
30
31
32
33
34
35
36
37
38
39
40
41
42
43
44
45
46
47
48
49
50
51
52
53
54
55
56
57
58
59
60
61
62
63
64
65
66
67
68
69
70
71
72
73
74
75
76
77
78
79
80
81
82
83
84
85
86
87
88
89
90
91
141
142
143
144
145
146
147
148
149
150
151
152
153
154
155
156
157
158
159
160
161
162
163
164
165
166
167
168
169
170
171
172
173
174
175
176
139
138
137
135
136
134
132
133
131
129
130
128
126
127
125
123
124
122
120
121
182
181
180
179
178
177
140
7
8
9
10
11
12
13
14
15
192
191
190
189
188
187
186
185
184
183
203
202
201
200
199
198
197
196
195
194
228
227
226
225
229
224
223
222
221
220
219
218
217
216
215
214
213
208
209
210
211
212
205
206
207
204
248
247
246
245
244
243
242
241
240
239
238
237
236
235
234
233
232
231
230
260
261
262
257
256
255
254
253
252
251
250
249
259
258
193
6
5
4
3
2
1
